# Solution for model Model5
# Objective value = 47572
B0(8) 1
B1(13) 1
B2(11) 1
B3(11) 1
B4(12) 1
B5(12) 1
B6(7) 1
B7(11) 1
B8(13) 1
B9(12) 1
B10(14) 1
B11(11) 1
B12(11) 1
B13(7) 1
B14(12) 1
B15(14) 1
B16(11) 1
B17(11) 1
B18(12) 1
B19(16) 1
B20(11) 1
B21(15) 1
B22(11) 1
B23(12) 1
B24(0) 0
B25(0) 0
B26(0) 0
B27(0) 0
B28(0) 0
B29(0) 0
B30(2) 1
B31(0) 0
B32(0) 0
B33(0) 0
B34(0) 0
B35(0) 0
B36(0) 0
B37(2) 1
B38(0) 0
B39(0) 0
B40(0) 0
B41(0) 0
B42(0) 0
B43(0) 0
B44(0) 0
B45(0) 0
B46(0) 0
B47(0) 0
B48(0) 0
B49(0) 0
B50(0) 0
B51(0) 0
B52(0) 0
B53(0) 0
B54(0) 0
B55(0) 0
B56(2) 1
B57(0) 0
B58(2) 0
B59(0) 0
B60(0) 0
B61(0) 0
B62(0) 0
B63(2) 0
B64(0) 0
B65(0) 0
B66(0) 0
B67(2) 1
B68(0) 0
B69(2) 1
B70(0) 0
B71(0) 0
B72(0) 0
B73(0) 0
B74(0) 0
B75(0) 0
B76(0) 0
B77(0) 0
B78(0) 0
B79(2) 1
B80(0) 0
B81(0) 0
B82(0) 0
B83(2) 0
B84(0) 0
B85(0) 0
B86(0) 0
B87(0) 0
B88(0) 0
B89(2) 0
B90(0) 0
B91(0) 0
B92(0) 0
B93(0) 0
B94(2) 1
B95(0) 0
B96(0) 0
B97(0) 0
B98(0) 0
B99(0) 0
B100(0) 0
B101(2) 0
B102(0) 0
B103(0) 0
B104(0) 0
B105(0) 0
B106(0) 0
B107(0) 0
B108(2) 0
B109(0) 0
B110(0) 0
B111(0) 0
B112(2) 0
B113(0) 0
B114(0) 0
B115(0) 0
B116(2) 0
B117(0) 0
B118(0) 0
B119(0) 0
B120(0) 0
B121(0) 0
B122(0) 0
B123(0) 0
B124(0) 0
B125(0) 0
B126(0) 0
B127(0) 0
B128(0) 0
B129(2) 1
B130(0) 0
B131(0) 0
B132(0) 0
B133(0) 0
B134(2) 0
B135(0) 0
B136(0) 0
B137(0) 0
B138(2) 0
B139(0) 0
B140(0) 0
B141(0) 0
B142(0) 0
B143(2) 0
B144(0) 0
B145(0) 0
B146(0) 0
B147(0) 0
B148(0) 0
B149(0) 0
B150(0) 0
B151(2) 0
B152(0) 0
B153(0) 0
B154(0) 0
B155(2) 0
B156(0) 0
B157(0) 0
B158(0) 0
B159(2) 0
B160(0) 0
B161(0) 0
B162(0) 0
B163(0) 0
B164(0) 0
B165(0) 0
B166(0) 0
B167(0) 0
B168(0) 0
B169(0) 0
B170(0) 0
B171(2) 0
B172(0) 0
B173(0) 0
B174(0) 0
B175(0) 0
B176(0) 0
B177(0) 0
B178(0) 0
B179(0) 0
B180(0) 0
B181(0) 0
B182(0) 0
B183(0) 0
B184(0) 0
B185(0) 0
B186(0) 0
B187(0) 0
B188(2) 0
B189(0) 0
B190(0) 0
B191(0) 0
B192(0) 0
B193(0) 0
B194(2) 0
B195(0) 0
B196(0) 0
B197(0) 0
B198(0) 0
B199(2) 0
B200(0) 0
B201(0) 0
B202(0) 0
B203(0) 0
B204(0) 0
B205(0) 0
B206(2) 0
B207(0) 0
B208(0) 0
B209(0) 0
B210(0) 0
B211(2) 0
B212(0) 0
B213(0) 0
B214(0) 0
B215(2) 0
B216(0) 0
B217(2) 0
B218(0) 0
B219(0) 0
B220(0) 0
B221(0) 0
B222(0) 0
B223(0) 0
B224(0) 0
B225(0) 0
B226(0) 0
B227(0) 0
B228(0) 0
B229(2) 0
B230(0) 0
B231(0) 0
B232(0) 0
B233(2) 0
B234(0) 0
B235(0) 0
B236(0) 0
B237(0) 0
B238(2) 0
B239(0) 0
B240(0) 0
B241(0) 0
B242(0) 0
B243(0) 0
B244(2) 0
B245(0) 0
B246(0) 0
B247(0) 0
B248(2) 1
B249(0) 0
B250(2) 1
B251(0) 0
B252(0) 0
B253(0) 0
B254(0) 0
B255(0) 0
B256(0) 0
B257(0) 0
B258(0) 0
B259(0) 0
B260(2) 1
B261(0) 0
B262(0) 0
B263(0) 0
B264(0) 0
B265(2) 1
B266(0) 0
B267(0) 0
B268(0) 0
B269(0) 0
B270(0) 0
B271(0) 0
B272(0) 0
B273(2) 0
B274(0) 0
B275(0) 0
B276(0) 0
B277(2) 1
B278(0) 0
B279(0) 0
B280(0) 0
B281(0) 0
B282(0) 0
B283(0) 0
B284(0) 0
B285(0) 0
B286(0) 0
B287(0) 0
B288(0) 0
B289(0) 0
B290(0) 0
B291(0) 0
B292(0) 0
B293(0) 0
B294(0) 0
B295(0) 0
B296(0) 0
B297(0) 0
B298(0) 0
B299(0) 0
B300(0) 0
B301(0) 0
B302(0) 0
B303(2) 0
B304(0) 0
B305(0) 0
B306(0) 0
B307(0) 0
B308(2) 1
B309(0) 0
B310(0) 0
B311(0) 0
B312(0) 0
B313(2) 1
B314(0) 0
B315(2) 1
B316(0) 0
B317(0) 0
B318(0) 0
B319(0) 0
B320(0) 0
B321(0) 0
B322(0) 0
B323(2) 1
B324(0) 0
B325(0) 0
B326(0) 0
B327(0) 0
B328(0) 0
B329(0) 0
B330(0) 0
B331(0) 0
B332(0) 0
B333(0) 0
B334(2) 1
B335(0) 0
B336(0) 0
B337(0) 0
B338(0) 0
B339(0) 0
B340(0) 0
B341(0) 0
B342(0) 0
B343(0) 0
B344(2) 1
B345(0) 0
B346(0) 0
B347(2) 1
B348(0) 0
B349(0) 0
B350(0) 0
B351(0) 0
B352(0) 0
B353(0) 0
B354(0) 0
B355(2) 0
B356(0) 0
B357(0) 0
B358(0) 0
B359(0) 0
B360(0) 0
B361(0) 0
B362(0) 0
B363(0) 0
B364(0) 0
B365(0) 0
B366(0) 0
B367(0) 0
B368(0) 0
B369(0) 0
I370(10) 13679
I371(14) 12239
I372(12) 7978
I373(12) 3499
I374(12) 2059
I375(14) 6439
I376(8) 4859
I377(12) 3360
I378(14) 1920
I379(12) 480
I380(16) 16678
I381(12) 15238
I382(12) 10918
I383(8) 7978
I384(12) 6538
I385(16) 18277
I386(12) 15397
I387(12) 12278
I388(12) 8157
I389(18) 10739
I390(12) 9299
I391(16) 7859
I392(12) 6419
I393(12) 3539
I394(1) 47572
B395(4) 1
B396(4) 1
B397(4) 1
B398(4) 1
B399(4) 1
